c ENC2
p cnf 39 72
20 18 0
31 29 0
14 16 0
34 35 0
36 37 0
13 12 0
-20 -18 0
-31 -29 0
-14 -16 0
-34 -35 0
-36 -37 0
-13 -12 0
-21 20 0
21 18 0
-21 20 0
21 18 0
-9 31 0
9 29 0
-21 20 0
21 18 0
-9 31 0
9 29 0
-25 14 0
25 16 0
-20 -31 -14 -32 34 0
-20 -31 -14 32 35 0
-20 -31 -16 -3 34 0
-20 -31 -16 3 35 0
-20 -29 -14 -15 34 0
-20 -29 -14 15 35 0
-20 -29 -16 -24 34 0
-20 -29 -16 24 35 0
-18 -31 -14 -5 34 0
-18 -31 -14 5 35 0
-18 -31 -16 -30 34 0
-18 -31 -16 30 35 0
-18 -29 -14 -7 34 0
-18 -29 -14 7 35 0
-18 -29 -16 -10 34 0
-18 -29 -16 10 35 0
-20 -31 -14 -38 36 0
-20 -31 -14 38 37 0
-20 -31 -16 -8 36 0
-20 -31 -16 8 37 0
-20 -29 -14 -11 36 0
-20 -29 -14 11 37 0
-20 -29 -16 -27 36 0
-20 -29 -16 27 37 0
-18 -31 -14 -4 36 0
-18 -31 -14 4 37 0
-18 -31 -16 -23 36 0
-18 -31 -16 23 37 0
-18 -29 -14 -2 36 0
-18 -29 -14 2 37 0
-18 -29 -16 -17 36 0
-18 -29 -16 17 37 0
-20 -31 -14 -19 13 0
-20 -31 -14 19 12 0
-20 -31 -16 -28 13 0
-20 -31 -16 28 12 0
-20 -29 -14 -33 13 0
-20 -29 -14 33 12 0
-20 -29 -16 -6 13 0
-20 -29 -16 6 12 0
-18 -31 -14 -26 13 0
-18 -31 -14 26 12 0
-18 -31 -16 -1 13 0
-18 -31 -16 1 12 0
-18 -29 -14 -22 13 0
-18 -29 -14 22 12 0
-18 -29 -16 -39 13 0
-18 -29 -16 39 12 0
